StudentsNr = 10;
InstructorsNr = 14;
DaysNr = 2;
SlotsPerDay = 15;
AvailabilitySlotsLenght = 15;
RoomNr = 1;
ProgrammNr = 1;
DegreeNr = 1;
RolesNr = 3;
CoursesNr = 6;
InstructorsProgramm = [{1}, {1}, {1}, {1}, {1}, {1}, {1}, {1}, {1}, {1}, {1}, {1}, {1}, {1}];
InstructorRolesPerProgramm = [|{6, 8, 13}, {3, 10, 11, 13, 14}, {4, 5, 8, 9, 10, 11, 12, 14}|];
InstructorsAvailability = [|0, 0, |0, 0, |1, 1, |0, 0, |0, 1, |0, 1, |1, 1, |0, 1, |0, 1, |1, 0, |0, 0, |0, 1, |0, 1, |1, 1|];
StudentsProgramm = [1, 1, 1, 1, 1, 1, 1, 1, 1, 1];
StudentsDegree = [1, 1, 1, 1, 1, 1, 1, 1, 1, 1];
StudentsSupervisorId = [13, 4, 5, 11, 5, 5, 12, 11, 6, 13];
StudentsCourseIds = [{1, 2, 3, 4, 5, 6}, {1, 2, 3, 4, 5, 6}, {1, 2, 3, 4, 5, 6}, {1, 2, 3, 4, 5, 6}, {1, 2, 3, 4, 5, 6}, {1, 2, 3, 4, 5, 6}, {1, 2, 3, 4, 5, 6}, {1, 2, 3, 4, 5, 6}, {1, 2, 3, 4, 5, 6}, {1, 2, 3, 4, 5, 6}];
StudentsAvailability = [|1, 1, |1, 1, |1, 1, |1, 1, |0, 1, |1, 1, |0, 0, |1, 1, |0, 0, |1, 1|];
TheoryticalMinCard = [0, 0, 0, 0, 0, 0, 0, 0, 0, 0];
CoursesInstructorIds = [{1, 3, 5, 6, 7, 8, 10}, {10, 14}, {1, 2, 3, 4, 5, 6, 7, 9, 10, 12, 13, 14}, {1, 3, 4, 5, 6, 10, 12, 14}, {1, 2, 3, 4, 9, 11, 12}, {2, 4, 6, 7, 8, 9, 12, 14}];
RolesDemands = [1, 3, 7];
RolesContinuity = [2, 3];
ExamLen = [1, 1, 1, 1, 1, 1, 1, 1, 1, 1];
LunchTsMinLen = 0;
LunchStarts = [7..10, 18..24];
SupervisorAvailable = 0;
OptimalLunchLenght = [1, 0];
OptimalStartTs = [0, 0];
OptimalFinishTs = [1, 15];
MinimizeRooms = 100;
RolesSoftContinuity = [|1, 2, 3|0, 2, 1|];
SameDegreeInRoom = 10;
Mergeability = 1;
